(declare-fun bvlambda_28_ () (_ BitVec 3))
(declare-fun bvlambda_29_ () (_ BitVec 1))
(declare-fun bvlambda_30_ () (_ BitVec 1))
(declare-fun bvlambda_40_ () (_ BitVec 1))
(declare-fun a119 () (Array (_ BitVec 1) (_ BitVec 2)))
(declare-fun a120 () (Array (_ BitVec 3) (_ BitVec 1)))
(assert
(let (($e1 (_ bv0 1)))
(let (($e13 (_ bv8190 13)))
(let (($e16 (_ bv0 2)))
(let (($e19 (_ bv0 3)))
(let (($e29 (_ bv0 9)))
(let (($e42 (_ bv0 10)))
(let (($e136               bvlambda_28_ ))
(let (($e137                           $e136       ))
(let (($e138        $e137       ))
(let (($e188               $e13                ))
(let (($e260        a120                   ))
(let (($e270 (   extract      $e188)))
(let (($e271 (store a119 $e270        $e16 )))
(let (($e277 (select $e260 $e19)))
(let (($e340 (select $e271        bvlambda_40_ )))
(let (($e376 (   extract      $e138)))
(let (($e377 (concat bvlambda_29_ bvlambda_30_)))
(let (($e378 (store a119 $e1 $e377)))
(let (($e379 (select $e378 $e376)))
(let (($e414 (concat        $e42  $e277)))
(let (($e415                    $e414       ))
(let (($e417 (concat        $e29  $e340)))
(let (($e418                    $e417       ))
(let (($e419      (bvult $e418 $e415)         ))
(let (($e420         $e419                ))
(let (($e429              $e420 ))
(let (($e430               $e429                ))
(let (($e434              $e430 ))
(let (($e435               $e434                ))
(let (($e436 (select a119 (bvnot $e1))))
(let (($e437      (bvult $e436 $e379)         ))
(let (($e438 (bvand        $e437         $e435 )))
                    (bvnot $e438)
                                                                                                                                                                                                                                                                                                                                                                                                                                                                                                                                                                                                                                                                                                                                                                                                                                                                                                                                                                                                                                                                                                                                                                                                                                                                                                                                                                            )))))   ))        )))) ))                                  ))))                                   )                                                              )     ))         )                                                                       )                                                 )))                                                )            )         )  )  )           ))
